param set_len = 40;
param target_sum = 5934499193;
param values := [1] 458979587 [2] 511918719 [3] 924029326 [4] 835785730 [5] 815272473 [6] 441444016 [7] 202681305 [8] 768236300 [9] 107085179 [10] 32736193 [11] 352754477 [12] 452970503 [13] 311762260 [14] 698665198 [15] 109553013 [16] 331300059 [17] 180199701 [18] 62939468 [19] 767642921 [20] 449186060 [21] 990906213 [22] 8634717 [23] 217790700 [24] 1553598 [25] 959572653 [26] 316562995 [27] 750537572 [28] 848653234 [29] 141577616 [30] 332777007 [31] 500334677 [32] 215696462 [33] 349445774 [34] 420015860 [35] 99094311 [36] 521354691 [37] 110389898 [38] 277530251 [39] 13447666 [40] 737560364 ;
